NAME: random-15-17986
TYPE: TSP
COMMENT: size=15 seed=17986
DIMENSION: 32
EDGE_WEIGHT_TYPE: EUC_2D
NODE_COORD_SECTION
+0 702 359
-0 702 359
+1 426 306
-1 22 838
+2 679 357
-2 481 416
+3 697 625
-3 415 989
+4 485 508
-4 528 738
+5 82 890
-5 403 904
+6 467 319
-6 476 741
+7 722 993
-7 311 360
+8 992 371
-8 27 897
+9 728 126
-9 766 716
+10 841 808
-10 439 93
+11 664 941
-11 888 662
+12 396 699
-12 444 834
+13 516 16
-13 381 22
+14 14 441
-14 189 775
+15 555 798
-15 272 178
PRECEDENCE_SECTION
+0 -0
+1 -1
+2 -2
+3 -3
+4 -4
+5 -5
+6 -6
+7 -7
+8 -8
+9 -9
+10 -10
+11 -11
+12 -12
+13 -13
+14 -14
+15 -15
EOF
